problems/csplib-prob024/Langford-combinedDirect-models/noch/O0/minion/model-langford_02_07-solution000001.eprime-solution
language ESSENCE' 1.0

letting pos_FunctionND be
        [[1, 3; int(1..2)], [8, 11; int(1..2)], [9, 13; int(1..2)], [2, 7; int(1..2)], [4, 10; int(1..2)],
         [5, 12; int(1..2)], [6, 14; int(1..2)];
             int(1..7)]
$ Visualisation for pos_FunctionND
$  1  3
$  8 11
$  9 13
$  2  7
$  4 10
$  5 12
$  6 14

letting seq_ExplicitBounded_Length be 14
letting seq_ExplicitBounded_Values be [1, 4, 1, 5, 6, 7, 4, 2, 3, 5, 2, 6, 3, 7; int(1..14)]
