problems/csplib-prob024/Langford-combinedDirect-models/noch/O0/minion/model-langford_02_07-solution000001.solution
language Essence 1.3

letting pos be
        function((1, 1) --> 1, (1, 2) --> 3, (2, 1) --> 8, (2, 2) --> 11, (3, 1) --> 9, (3, 2) --> 13, (4, 1) --> 2,
                 (4, 2) --> 7, (5, 1) --> 4, (5, 2) --> 10, (6, 1) --> 5, (6, 2) --> 12, (7, 1) --> 6, (7, 2) --> 14)
letting seq be sequence(1, 4, 1, 5, 6, 7, 4, 2, 3, 5, 2, 6, 3, 7)
